benchmarks_vrp/CMT2/tsp_classic/CMT2_6.vrp
NAME: CMT2_6
TYPE: CVRP
COMMENT: 835.26 - Cluster Nr.6
DIMENSION: 8
CAPACITY: 140
EDGE_WEIGHT_TYPE: EUC_2D
NODE_COORD_TYPE: TWOD_COORDS
NODE_COORD_SECTION: 
2 17 64
7 10 70
8 9 56
6 15 56
1 30 60
4 40 40
5 26 59
3 22 53
DEPOT_SECTION: 
4
-1
DEMAND_SECTION: 
2 14
4 0
8 13
3 28
7 7
6 22
5 29
1 16
EOF
