benchmarks_vrp/CMT2/tsp_classic/CMT2_6.tour
NAME: CMT2_6 solution
TYPE: TOUR
TOUR_SECTION:
4 1 5 2 7 8 6 3 -1
-1
EOF